NAME: random-8-7022
TYPE: TSP
COMMENT: size=8 seed=7022
DIMENSION: 18
EDGE_WEIGHT_TYPE: EUC_2D
NODE_COORD_SECTION
+0 754 297
-0 754 297
+1 33 545
-1 458 714
+2 116 337
-2 956 21
+3 579 350
-3 89 873
+4 530 100
-4 756 21
+5 309 884
-5 253 603
+6 493 626
-6 863 739
+7 65 189
-7 510 428
+8 490 423
-8 124 238
PRECEDENCE_SECTION
+0 -0
+1 -1
+2 -2
+3 -3
+4 -4
+5 -5
+6 -6
+7 -7
+8 -8
EOF
